************************************************************************
file with basedata            : mm52_.bas
initial value random generator: 2026569778
************************************************************************
projects                      :  1
jobs (incl. supersource/sink ):  12
horizon                       :  68
RESOURCES
  - renewable                 :  2   R
  - nonrenewable              :  2   N
  - doubly constrained        :  0   D
************************************************************************
PROJECT INFORMATION:
pronr.  #jobs rel.date duedate tardcost  MPM-Time
    1     10      0       18        0       18
************************************************************************
PRECEDENCE RELATIONS:
jobnr.    #modes  #successors   successors
   0        1          3           1   2   3
   1        3          2           5   8
   2        3          2           5   8
   3        3          3           4   9  10
   4        3          1           8
   5        3          2           6  10
   6        3          1           7
   7        3          1           9
   8        3          1          11
   9        3          1          11
  10        3          1          11
  11        1          0        
************************************************************************
REQUESTS/DURATIONS:
jobnr. mode duration  R 1  R 2  R 3  R 4  E(W 1)  E(W 2)
------------------------------------------------------------------------
  0      1     0       0    0    0    0     0       0
  1      1     4       9    5    8    0    56      32
  2      1     4       7    6    0    9    52      36
  3      1     3       9    5    7    0    42      21
  4      1     3       7    5    0    7    36      21
  5      1     5       7    9    9    0    80      45
  6      1     3       5    5    0   10    30      30
  7      1     1       5    6    0    3    11       3
  8      1     1       8    4    0    4    12       4
  9      1     5       4    5    0    6    45      30
 10      1     3       3    7    6    0    30      18
 11      1     0       0    0    0    0     0       0
************************************************************************
RESOURCEAVAILABILITIES:
  R 1  R 2
   34   122
************************************************************************
RESOURCE LIMITS:
jobnr.  l(R 1)  u(R 1)  l(R 2)  u(R 2)
------------------------------------------------------------------------
  0        0       0       0       0
  1        8      14       4       8
  2        7      13       5       9
  3        8      14       4       7
  4        7      12       4       7
  5        9      16       5       9
  6        6      10       5      10
  7        6      11       2       3
  8        6      12       2       4
  9        5       9       3       6
 10        6      10       3       6
 11        0       0       0       0
************************************************************************
SCENARIOS:
------------------------------------------------------------------------
RESOURCE k = 1
s = 1: (0, 68, 33, 38, 32, 112, 34, 9, 22, 40, 42, 0)
s = 2: (0, 57, 41, 40, 31, 106, 49, 9, 8, 50, 50, 0)
s = 3: (0, 58, 68, 37, 48, 68, 19, 17, 11, 34, 26, 0)
s = 4: (0, 45, 61, 25, 24, 56, 26, 9, 13, 57, 24, 0)
s = 5: (0, 48, 40, 43, 39, 110, 25, 13, 14, 83, 23, 0)
s = 6: (0, 54, 49, 44, 48, 82, 28, 11, 7, 45, 30, 0)
s = 7: (0, 79, 35, 54, 31, 89, 22, 7, 9, 46, 25, 0)
s = 8: (0, 46, 69, 35, 36, 59, 24, 10, 9, 37, 28, 0)
s = 9: (0, 37, 81, 35, 75, 92, 19, 14, 19, 38, 30, 0)
s = 10: (0, 40, 37, 36, 66, 71, 35, 11, 16, 38, 25, 0)
s = 11: (0, 71, 50, 42, 22, 74, 35, 10, 16, 39, 21, 0)
s = 12: (0, 56, 45, 28, 28, 66, 26, 14, 12, 44, 35, 0)
s = 13: (0, 76, 51, 49, 38, 66, 18, 11, 10, 64, 37, 0)
s = 14: (0, 54, 42, 57, 51, 50, 34, 9, 9, 55, 33, 0)
s = 15: (0, 36, 47, 66, 49, 98, 31, 8, 8, 30, 26, 0)
s = 16: (0, 58, 40, 54, 48, 96, 39, 9, 18, 40, 27, 0)
s = 17: (0, 51, 63, 41, 43, 56, 17, 13, 16, 43, 43, 0)
s = 18: (0, 54, 60, 42, 32, 74, 45, 12, 12, 59, 22, 0)
s = 19: (0, 40, 47, 44, 31, 127, 21, 7, 17, 44, 50, 0)
s = 20: (0, 49, 36, 68, 38, 89, 34, 13, 13, 50, 33, 0)
s = 21: (0, 45, 71, 43, 49, 61, 40, 13, 10, 25, 20, 0)
s = 22: (0, 63, 31, 39, 40, 70, 45, 9, 14, 45, 27, 0)
s = 23: (0, 65, 37, 43, 41, 91, 18, 14, 14, 41, 42, 0)
s = 24: (0, 73, 83, 52, 35, 107, 23, 10, 7, 42, 33, 0)
s = 25: (0, 62, 34, 48, 37, 85, 39, 10, 9, 27, 37, 0)
s = 26: (0, 64, 70, 28, 41, 71, 37, 18, 16, 48, 27, 0)
s = 27: (0, 62, 34, 51, 38, 88, 34, 9, 10, 62, 36, 0)
s = 28: (0, 45, 52, 39, 24, 53, 20, 8, 8, 36, 21, 0)
s = 29: (0, 41, 58, 36, 33, 66, 23, 10, 22, 36, 20, 0)
s = 30: (0, 63, 80, 36, 40, 66, 22, 18, 17, 42, 28, 0)
s = 31: (0, 77, 31, 46, 34, 88, 34, 12, 10, 32, 36, 0)
s = 32: (0, 39, 48, 46, 42, 120, 17, 10, 17, 52, 23, 0)
s = 33: (0, 83, 65, 30, 25, 58, 29, 9, 12, 68, 19, 0)
s = 34: (0, 66, 52, 52, 36, 61, 25, 18, 11, 55, 42, 0)
s = 35: (0, 48, 61, 42, 44, 92, 25, 10, 12, 53, 24, 0)
s = 36: (0, 39, 40, 43, 20, 89, 42, 10, 14, 72, 19, 0)
s = 37: (0, 62, 38, 24, 37, 64, 26, 14, 13, 35, 31, 0)
s = 38: (0, 62, 40, 42, 37, 115, 40, 7, 13, 32, 29, 0)
s = 39: (0, 71, 41, 36, 39, 79, 50, 11, 10, 49, 36, 0)
s = 40: (0, 46, 58, 44, 26, 85, 22, 9, 14, 63, 30, 0)
s = 41: (0, 98, 72, 44, 29, 63, 32, 9, 15, 30, 44, 0)
s = 42: (0, 37, 64, 40, 21, 64, 26, 11, 12, 28, 46, 0)
s = 43: (0, 68, 63, 36, 24, 49, 46, 13, 12, 60, 19, 0)
s = 44: (0, 37, 56, 33, 22, 47, 26, 12, 15, 50, 24, 0)
s = 45: (0, 76, 32, 35, 24, 59, 46, 9, 12, 27, 35, 0)
s = 46: (0, 69, 48, 43, 43, 76, 30, 14, 19, 38, 26, 0)
s = 47: (0, 43, 48, 71, 27, 57, 34, 12, 9, 41, 38, 0)
s = 48: (0, 71, 51, 60, 30, 65, 41, 14, 10, 36, 23, 0)
s = 49: (0, 58, 59, 40, 24, 102, 37, 8, 9, 40, 35, 0)
s = 50: (0, 45, 49, 44, 30, 104, 18, 13, 10, 33, 19, 0)
s = 51: (0, 53, 34, 54, 35, 94, 24, 10, 10, 49, 21, 0)
s = 52: (0, 79, 50, 54, 35, 70, 41, 18, 11, 52, 19, 0)
s = 53: (0, 45, 49, 47, 39, 107, 22, 10, 13, 29, 26, 0)
s = 54: (0, 49, 44, 40, 56, 46, 40, 16, 8, 48, 33, 0)
s = 55: (0, 59, 41, 40, 63, 74, 20, 16, 14, 37, 24, 0)
s = 56: (0, 81, 75, 26, 45, 127, 30, 9, 14, 50, 39, 0)
s = 57: (0, 49, 38, 33, 34, 87, 39, 8, 14, 31, 54, 0)
s = 58: (0, 63, 41, 30, 40, 104, 35, 12, 13, 67, 30, 0)
s = 59: (0, 84, 51, 35, 48, 64, 39, 15, 11, 35, 26, 0)
s = 60: (0, 55, 37, 28, 30, 105, 31, 15, 17, 49, 23, 0)
s = 61: (0, 45, 76, 35, 35, 68, 34, 9, 13, 57, 41, 0)
s = 62: (0, 56, 33, 57, 33, 71, 39, 10, 14, 32, 31, 0)
s = 63: (0, 37, 42, 43, 33, 104, 22, 10, 12, 33, 20, 0)
s = 64: (0, 54, 56, 23, 28, 55, 25, 14, 19, 41, 25, 0)
s = 65: (0, 44, 31, 40, 38, 47, 26, 11, 15, 65, 22, 0)
s = 66: (0, 59, 38, 48, 32, 43, 34, 11, 18, 37, 27, 0)
s = 67: (0, 55, 51, 50, 37, 103, 42, 9, 7, 44, 32, 0)
s = 68: (0, 40, 48, 49, 25, 99, 19, 12, 14, 55, 36, 0)
s = 69: (0, 37, 42, 25, 35, 82, 16, 13, 9, 34, 24, 0)
s = 70: (0, 39, 60, 38, 36, 129, 44, 13, 13, 35, 35, 0)
s = 71: (0, 88, 38, 58, 30, 85, 42, 11, 13, 38, 30, 0)
s = 72: (0, 55, 58, 68, 31, 71, 38, 20, 21, 42, 19, 0)
s = 73: (0, 81, 70, 27, 48, 115, 23, 12, 13, 43, 32, 0)
s = 74: (0, 59, 42, 34, 42, 122, 23, 7, 9, 60, 39, 0)
s = 75: (0, 40, 84, 50, 35, 89, 26, 13, 10, 42, 38, 0)
s = 76: (0, 67, 47, 46, 47, 79, 36, 12, 12, 63, 27, 0)
s = 77: (0, 60, 74, 42, 39, 59, 21, 19, 14, 48, 20, 0)
s = 78: (0, 71, 46, 51, 32, 51, 36, 7, 11, 54, 40, 0)
s = 79: (0, 69, 53, 34, 41, 72, 23, 9, 10, 60, 39, 0)
s = 80: (0, 49, 45, 32, 33, 99, 29, 10, 16, 29, 29, 0)
s = 81: (0, 63, 59, 57, 27, 81, 24, 17, 13, 43, 36, 0)
s = 82: (0, 87, 52, 25, 28, 51, 23, 10, 13, 50, 33, 0)
s = 83: (0, 64, 55, 46, 26, 62, 40, 7, 8, 44, 37, 0)
s = 84: (0, 95, 60, 63, 47, 106, 26, 8, 16, 32, 30, 0)
s = 85: (0, 77, 54, 70, 29, 70, 26, 12, 10, 49, 21, 0)
s = 86: (0, 39, 43, 43, 30, 86, 38, 8, 20, 46, 25, 0)
s = 87: (0, 71, 51, 39, 30, 58, 44, 11, 11, 26, 28, 0)
s = 88: (0, 47, 81, 41, 23, 75, 34, 13, 10, 37, 37, 0)
s = 89: (0, 94, 65, 28, 32, 64, 47, 11, 10, 29, 21, 0)
s = 90: (0, 34, 32, 56, 36, 88, 23, 14, 9, 53, 28, 0)
s = 91: (0, 100, 53, 35, 27, 83, 27, 6, 13, 43, 23, 0)
s = 92: (0, 52, 46, 47, 27, 57, 20, 15, 12, 51, 37, 0)
s = 93: (0, 71, 48, 36, 30, 84, 58, 14, 10, 49, 29, 0)
s = 94: (0, 45, 51, 35, 39, 118, 23, 17, 12, 39, 56, 0)
s = 95: (0, 52, 39, 53, 31, 72, 30, 20, 7, 37, 30, 0)
s = 96: (0, 66, 54, 34, 31, 74, 27, 12, 11, 34, 34, 0)
s = 97: (0, 65, 39, 38, 47, 82, 18, 12, 9, 52, 25, 0)
s = 98: (0, 56, 69, 48, 31, 117, 44, 9, 17, 39, 26, 0)
s = 99: (0, 65, 94, 34, 51, 96, 26, 14, 8, 36, 26, 0)
s = 100: (0, 31, 50, 62, 44, 135, 38, 7, 11, 41, 22, 0)
s = 101: (0, 42, 80, 40, 31, 69, 27, 16, 11, 44, 19, 0)
s = 102: (0, 33, 64, 34, 27, 120, 21, 9, 13, 71, 25, 0)
s = 103: (0, 82, 84, 41, 30, 109, 30, 11, 9, 47, 28, 0)
s = 104: (0, 100, 74, 49, 49, 60, 24, 13, 13, 48, 36, 0)
s = 105: (0, 50, 57, 42, 35, 60, 37, 7, 17, 56, 33, 0)
s = 106: (0, 59, 42, 71, 35, 82, 16, 16, 15, 30, 49, 0)
s = 107: (0, 78, 51, 44, 25, 59, 21, 9, 8, 36, 37, 0)
s = 108: (0, 64, 48, 27, 22, 96, 29, 7, 17, 34, 35, 0)
s = 109: (0, 49, 59, 38, 32, 87, 22, 11, 12, 53, 40, 0)
s = 110: (0, 70, 58, 35, 28, 90, 31, 13, 9, 39, 26, 0)
s = 111: (0, 51, 45, 41, 41, 92, 43, 10, 12, 45, 24, 0)
s = 112: (0, 36, 45, 29, 30, 65, 19, 13, 10, 48, 29, 0)
s = 113: (0, 56, 58, 55, 36, 43, 26, 13, 18, 44, 47, 0)
s = 114: (0, 78, 47, 30, 34, 68, 27, 11, 18, 40, 40, 0)
s = 115: (0, 44, 61, 32, 44, 80, 34, 17, 21, 38, 29, 0)
s = 116: (0, 78, 67, 52, 21, 73, 51, 15, 16, 56, 26, 0)
s = 117: (0, 30, 51, 44, 31, 71, 34, 13, 13, 44, 48, 0)
s = 118: (0, 56, 47, 53, 32, 118, 32, 12, 13, 31, 37, 0)
s = 119: (0, 59, 41, 49, 54, 148, 32, 13, 16, 38, 21, 0)
s = 120: (0, 42, 78, 29, 34, 52, 21, 10, 16, 50, 20, 0)
s = 121: (0, 64, 45, 42, 29, 89, 26, 18, 11, 33, 23, 0)
s = 122: (0, 66, 40, 54, 25, 71, 26, 12, 20, 51, 32, 0)
s = 123: (0, 86, 65, 39, 57, 93, 29, 9, 10, 37, 31, 0)
s = 124: (0, 35, 53, 37, 28, 68, 22, 12, 14, 37, 39, 0)
s = 125: (0, 42, 43, 68, 47, 56, 51, 14, 13, 48, 23, 0)
s = 126: (0, 42, 55, 45, 38, 59, 33, 18, 16, 32, 45, 0)
s = 127: (0, 75, 43, 33, 24, 65, 35, 9, 12, 35, 36, 0)
s = 128: (0, 46, 41, 60, 27, 137, 32, 11, 7, 30, 26, 0)
s = 129: (0, 36, 52, 45, 39, 55, 40, 15, 10, 44, 35, 0)
s = 130: (0, 38, 64, 31, 47, 55, 27, 11, 20, 33, 23, 0)
s = 131: (0, 64, 31, 49, 32, 57, 31, 14, 18, 59, 31, 0)
s = 132: (0, 53, 75, 39, 27, 71, 28, 6, 10, 52, 20, 0)
s = 133: (0, 53, 72, 40, 41, 93, 32, 10, 10, 67, 24, 0)
s = 134: (0, 33, 44, 46, 48, 56, 24, 8, 11, 32, 35, 0)
s = 135: (0, 36, 51, 58, 27, 58, 43, 8, 15, 26, 29, 0)
s = 136: (0, 61, 42, 51, 31, 67, 28, 8, 10, 72, 36, 0)
s = 137: (0, 80, 36, 55, 38, 76, 19, 16, 9, 58, 22, 0)
s = 138: (0, 44, 44, 50, 40, 67, 30, 14, 12, 43, 38, 0)
s = 139: (0, 72, 36, 33, 32, 66, 27, 17, 9, 36, 32, 0)
s = 140: (0, 76, 54, 29, 25, 91, 40, 10, 16, 34, 30, 0)
s = 141: (0, 57, 73, 55, 26, 91, 20, 13, 11, 44, 50, 0)
s = 142: (0, 52, 67, 30, 42, 73, 31, 10, 21, 45, 24, 0)
s = 143: (0, 40, 51, 67, 35, 58, 23, 10, 16, 41, 32, 0)
s = 144: (0, 56, 63, 27, 39, 73, 29, 11, 11, 58, 27, 0)
s = 145: (0, 67, 62, 28, 21, 62, 45, 14, 10, 42, 28, 0)
s = 146: (0, 82, 49, 39, 46, 82, 20, 10, 11, 48, 17, 0)
s = 147: (0, 78, 56, 36, 51, 71, 36, 11, 8, 58, 18, 0)
s = 148: (0, 74, 49, 26, 25, 84, 44, 9, 21, 56, 32, 0)
s = 149: (0, 37, 50, 25, 46, 89, 20, 7, 9, 59, 33, 0)
s = 150: (0, 51, 31, 46, 54, 80, 29, 9, 13, 36, 24, 0)
s = 151: (0, 40, 48, 48, 33, 122, 22, 10, 12, 55, 24, 0)
s = 152: (0, 79, 51, 51, 25, 86, 25, 9, 11, 64, 26, 0)
s = 153: (0, 48, 60, 36, 32, 93, 27, 7, 23, 51, 18, 0)
s = 154: (0, 66, 53, 46, 45, 84, 32, 12, 12, 49, 39, 0)
s = 155: (0, 79, 60, 56, 43, 111, 21, 7, 14, 65, 22, 0)
s = 156: (0, 47, 43, 49, 24, 57, 23, 13, 10, 54, 22, 0)
s = 157: (0, 49, 44, 45, 33, 128, 28, 15, 8, 31, 32, 0)
s = 158: (0, 82, 57, 55, 39, 68, 34, 9, 20, 35, 46, 0)
s = 159: (0, 45, 87, 51, 31, 61, 29, 12, 8, 65, 32, 0)
s = 160: (0, 44, 50, 36, 42, 115, 35, 14, 10, 42, 40, 0)
s = 161: (0, 34, 58, 45, 52, 73, 38, 8, 12, 39, 28, 0)
s = 162: (0, 53, 60, 40, 58, 97, 18, 10, 16, 36, 24, 0)
s = 163: (0, 61, 60, 61, 26, 47, 28, 10, 8, 60, 20, 0)
s = 164: (0, 60, 74, 60, 23, 61, 30, 9, 17, 47, 43, 0)
s = 165: (0, 46, 79, 78, 31, 73, 25, 9, 12, 30, 39, 0)
s = 166: (0, 68, 40, 78, 28, 79, 22, 8, 13, 41, 36, 0)
s = 167: (0, 31, 60, 50, 40, 77, 19, 9, 11, 27, 17, 0)
s = 168: (0, 90, 93, 33, 29, 89, 24, 10, 13, 49, 27, 0)
s = 169: (0, 40, 42, 33, 29, 74, 26, 8, 14, 76, 38, 0)
s = 170: (0, 79, 47, 29, 40, 92, 27, 9, 16, 40, 38, 0)
s = 171: (0, 62, 64, 67, 37, 92, 32, 11, 13, 45, 23, 0)
s = 172: (0, 51, 39, 59, 30, 60, 40, 11, 21, 30, 32, 0)
s = 173: (0, 88, 74, 47, 48, 74, 21, 12, 16, 43, 30, 0)
s = 174: (0, 64, 38, 28, 48, 84, 39, 8, 14, 27, 45, 0)
s = 175: (0, 39, 45, 34, 36, 88, 35, 10, 7, 39, 28, 0)
s = 176: (0, 58, 47, 51, 30, 76, 17, 8, 17, 51, 47, 0)
s = 177: (0, 36, 46, 27, 53, 67, 26, 13, 12, 38, 43, 0)
s = 178: (0, 87, 50, 80, 44, 79, 27, 11, 17, 61, 32, 0)
s = 179: (0, 82, 43, 34, 39, 86, 25, 15, 14, 25, 44, 0)
s = 180: (0, 59, 50, 27, 45, 93, 24, 10, 15, 38, 39, 0)
s = 181: (0, 80, 82, 39, 38, 92, 30, 14, 9, 67, 52, 0)
s = 182: (0, 44, 40, 33, 27, 97, 30, 8, 15, 44, 20, 0)
s = 183: (0, 56, 69, 60, 29, 64, 29, 17, 17, 45, 45, 0)
s = 184: (0, 52, 32, 39, 31, 45, 25, 12, 9, 34, 17, 0)
s = 185: (0, 61, 41, 43, 27, 71, 47, 14, 11, 53, 32, 0)
s = 186: (0, 37, 76, 33, 33, 55, 30, 9, 12, 70, 20, 0)
s = 187: (0, 59, 52, 45, 28, 83, 33, 7, 8, 36, 25, 0)
s = 188: (0, 50, 62, 40, 43, 79, 28, 9, 15, 44, 33, 0)
s = 189: (0, 54, 43, 25, 38, 54, 20, 15, 8, 43, 37, 0)
s = 190: (0, 39, 32, 44, 37, 79, 34, 10, 14, 75, 35, 0)
s = 191: (0, 38, 34, 33, 38, 63, 24, 10, 18, 48, 21, 0)
s = 192: (0, 66, 63, 47, 37, 51, 18, 11, 11, 43, 33, 0)
s = 193: (0, 100, 60, 29, 39, 78, 30, 11, 15, 88, 39, 0)
s = 194: (0, 73, 70, 47, 53, 48, 24, 13, 16, 27, 35, 0)
s = 195: (0, 53, 44, 33, 37, 122, 23, 10, 11, 35, 28, 0)
s = 196: (0, 46, 53, 30, 27, 78, 36, 14, 9, 38, 24, 0)
s = 197: (0, 48, 47, 43, 35, 95, 31, 9, 10, 83, 36, 0)
s = 198: (0, 34, 58, 39, 27, 82, 47, 15, 14, 43, 37, 0)
s = 199: (0, 39, 58, 68, 35, 100, 27, 12, 11, 32, 18, 0)
s = 200: (0, 77, 68, 67, 45, 58, 23, 14, 11, 24, 19, 0)
------------------------------------------------------------------------
RESOURCE k = 2
s = 1: (0, 39, 23, 19, 19, 63, 34, 3, 8, 27, 26, 0)
s = 2: (0, 33, 28, 20, 18, 60, 49, 3, 3, 34, 30, 0)
s = 3: (0, 33, 47, 19, 28, 38, 19, 5, 4, 23, 16, 0)
s = 4: (0, 26, 43, 13, 14, 32, 26, 3, 5, 38, 15, 0)
s = 5: (0, 27, 28, 22, 23, 62, 25, 4, 5, 55, 14, 0)
s = 6: (0, 31, 34, 22, 28, 46, 28, 3, 3, 30, 18, 0)
s = 7: (0, 45, 24, 27, 18, 50, 22, 2, 3, 31, 15, 0)
s = 8: (0, 27, 48, 18, 21, 34, 24, 3, 3, 25, 17, 0)
s = 9: (0, 22, 57, 18, 44, 52, 19, 4, 7, 26, 18, 0)
s = 10: (0, 23, 26, 18, 38, 40, 35, 3, 6, 25, 15, 0)
s = 11: (0, 41, 35, 21, 13, 42, 35, 3, 6, 26, 13, 0)
s = 12: (0, 32, 32, 14, 17, 37, 26, 4, 4, 30, 21, 0)
s = 13: (0, 44, 35, 25, 22, 38, 18, 3, 4, 43, 23, 0)
s = 14: (0, 31, 29, 29, 30, 28, 34, 3, 3, 37, 20, 0)
s = 15: (0, 21, 33, 33, 29, 55, 31, 3, 3, 20, 16, 0)
s = 16: (0, 34, 28, 27, 28, 54, 39, 3, 6, 27, 16, 0)
s = 17: (0, 29, 44, 21, 26, 32, 17, 4, 6, 29, 26, 0)
s = 18: (0, 31, 42, 21, 19, 42, 45, 4, 4, 40, 14, 0)
s = 19: (0, 23, 33, 22, 18, 72, 21, 2, 6, 30, 30, 0)
s = 20: (0, 28, 25, 34, 22, 50, 34, 4, 5, 34, 20, 0)
s = 21: (0, 26, 49, 22, 29, 34, 40, 4, 4, 17, 12, 0)
s = 22: (0, 36, 21, 20, 24, 40, 45, 3, 5, 30, 16, 0)
s = 23: (0, 37, 25, 22, 24, 51, 18, 4, 5, 27, 25, 0)
s = 24: (0, 42, 58, 26, 20, 60, 23, 3, 3, 28, 20, 0)
s = 25: (0, 36, 24, 24, 22, 48, 39, 3, 3, 18, 23, 0)
s = 26: (0, 37, 49, 14, 24, 40, 37, 5, 6, 32, 17, 0)
s = 27: (0, 36, 23, 26, 22, 50, 34, 3, 4, 42, 22, 0)
s = 28: (0, 26, 36, 20, 14, 30, 20, 2, 3, 24, 13, 0)
s = 29: (0, 24, 41, 18, 20, 37, 23, 3, 8, 24, 12, 0)
s = 30: (0, 36, 56, 18, 24, 38, 22, 5, 6, 28, 17, 0)
s = 31: (0, 44, 22, 23, 20, 50, 34, 4, 4, 21, 22, 0)
s = 32: (0, 22, 33, 23, 25, 68, 17, 3, 6, 35, 14, 0)
s = 33: (0, 48, 45, 15, 15, 33, 29, 3, 4, 45, 11, 0)
s = 34: (0, 38, 36, 26, 21, 34, 25, 5, 4, 37, 25, 0)
s = 35: (0, 28, 43, 21, 26, 52, 25, 3, 4, 35, 15, 0)
s = 36: (0, 23, 28, 22, 12, 50, 42, 3, 5, 48, 12, 0)
s = 37: (0, 35, 27, 12, 22, 36, 26, 4, 5, 24, 19, 0)
s = 38: (0, 35, 28, 21, 22, 65, 40, 2, 5, 21, 17, 0)
s = 39: (0, 41, 28, 18, 23, 45, 50, 3, 4, 33, 22, 0)
s = 40: (0, 27, 40, 22, 16, 48, 22, 3, 5, 42, 18, 0)
s = 41: (0, 56, 50, 22, 17, 36, 32, 3, 5, 20, 27, 0)
s = 42: (0, 22, 44, 20, 13, 36, 26, 3, 4, 19, 28, 0)
s = 43: (0, 39, 44, 18, 14, 28, 46, 4, 4, 40, 12, 0)
s = 44: (0, 21, 39, 17, 13, 27, 26, 4, 5, 34, 14, 0)
s = 45: (0, 44, 22, 18, 14, 34, 46, 3, 4, 18, 21, 0)
s = 46: (0, 39, 34, 22, 25, 43, 30, 4, 7, 25, 16, 0)
s = 47: (0, 25, 33, 36, 16, 32, 34, 4, 3, 27, 23, 0)
s = 48: (0, 41, 35, 30, 18, 37, 41, 4, 4, 24, 14, 0)
s = 49: (0, 33, 41, 20, 14, 58, 37, 3, 3, 27, 21, 0)
s = 50: (0, 26, 34, 22, 18, 59, 18, 4, 4, 22, 12, 0)
s = 51: (0, 31, 24, 27, 21, 53, 24, 3, 4, 33, 13, 0)
s = 52: (0, 45, 34, 27, 21, 40, 41, 5, 4, 35, 12, 0)
s = 53: (0, 26, 34, 24, 23, 60, 22, 3, 5, 20, 16, 0)
s = 54: (0, 28, 31, 20, 33, 26, 40, 5, 3, 32, 20, 0)
s = 55: (0, 34, 28, 20, 37, 42, 20, 5, 5, 25, 15, 0)
s = 56: (0, 46, 52, 13, 27, 72, 30, 3, 5, 34, 24, 0)
s = 57: (0, 28, 26, 17, 20, 49, 39, 3, 5, 21, 33, 0)
s = 58: (0, 36, 28, 15, 23, 59, 35, 4, 5, 45, 18, 0)
s = 59: (0, 48, 35, 18, 28, 36, 39, 4, 4, 24, 16, 0)
s = 60: (0, 32, 26, 14, 18, 59, 31, 4, 6, 33, 14, 0)
s = 61: (0, 26, 53, 18, 21, 39, 34, 3, 5, 38, 25, 0)
s = 62: (0, 32, 23, 29, 19, 40, 39, 3, 5, 22, 19, 0)
s = 63: (0, 21, 29, 22, 20, 59, 22, 3, 4, 22, 12, 0)
s = 64: (0, 31, 39, 12, 16, 31, 25, 4, 7, 28, 15, 0)
s = 65: (0, 25, 21, 20, 22, 26, 26, 3, 5, 43, 14, 0)
s = 66: (0, 34, 27, 24, 19, 25, 34, 3, 6, 25, 17, 0)
s = 67: (0, 32, 36, 25, 22, 58, 42, 3, 3, 30, 20, 0)
s = 68: (0, 23, 33, 25, 15, 56, 19, 4, 5, 37, 22, 0)
s = 69: (0, 21, 30, 13, 21, 46, 16, 4, 3, 23, 14, 0)
s = 70: (0, 23, 42, 19, 21, 73, 44, 4, 5, 23, 21, 0)
s = 71: (0, 50, 27, 29, 18, 48, 42, 3, 5, 25, 18, 0)
s = 72: (0, 32, 40, 34, 18, 40, 38, 6, 7, 28, 12, 0)
s = 73: (0, 46, 48, 14, 28, 65, 23, 4, 5, 29, 19, 0)
s = 74: (0, 34, 29, 17, 25, 69, 23, 2, 3, 40, 23, 0)
s = 75: (0, 23, 59, 25, 21, 50, 26, 4, 4, 28, 23, 0)
s = 76: (0, 38, 32, 23, 28, 45, 36, 4, 4, 42, 17, 0)
s = 77: (0, 34, 51, 21, 23, 33, 21, 6, 5, 32, 12, 0)
s = 78: (0, 41, 32, 26, 19, 29, 36, 2, 4, 36, 24, 0)
s = 79: (0, 39, 37, 17, 24, 41, 23, 3, 4, 40, 24, 0)
s = 80: (0, 28, 31, 16, 19, 56, 29, 3, 6, 20, 18, 0)
s = 81: (0, 36, 41, 29, 16, 46, 24, 5, 5, 29, 22, 0)
s = 82: (0, 50, 36, 13, 17, 29, 23, 3, 5, 33, 20, 0)
s = 83: (0, 37, 38, 23, 15, 35, 40, 2, 3, 30, 23, 0)
s = 84: (0, 54, 41, 32, 27, 60, 26, 3, 6, 21, 18, 0)
s = 85: (0, 44, 38, 35, 17, 40, 26, 4, 4, 33, 13, 0)
s = 86: (0, 22, 30, 22, 17, 48, 38, 2, 7, 31, 15, 0)
s = 87: (0, 41, 35, 20, 18, 33, 44, 3, 4, 17, 17, 0)
s = 88: (0, 27, 56, 21, 14, 42, 34, 4, 4, 25, 22, 0)
s = 89: (0, 54, 45, 14, 19, 36, 47, 3, 4, 20, 13, 0)
s = 90: (0, 20, 22, 28, 21, 50, 23, 4, 3, 35, 17, 0)
s = 91: (0, 58, 37, 18, 16, 47, 27, 2, 5, 29, 14, 0)
s = 92: (0, 30, 32, 24, 16, 32, 20, 4, 4, 34, 22, 0)
s = 93: (0, 41, 34, 18, 17, 47, 58, 4, 4, 33, 18, 0)
s = 94: (0, 26, 35, 18, 23, 66, 23, 5, 4, 26, 34, 0)
s = 95: (0, 30, 27, 27, 19, 41, 30, 6, 3, 25, 18, 0)
s = 96: (0, 38, 37, 17, 18, 42, 27, 4, 4, 23, 21, 0)
s = 97: (0, 37, 27, 19, 27, 46, 18, 4, 3, 35, 15, 0)
s = 98: (0, 32, 48, 24, 18, 66, 44, 3, 6, 26, 16, 0)
s = 99: (0, 37, 66, 17, 30, 54, 26, 4, 3, 24, 16, 0)
s = 100: (0, 18, 35, 31, 26, 76, 38, 2, 4, 27, 14, 0)
s = 101: (0, 24, 56, 20, 18, 39, 27, 5, 4, 30, 12, 0)
s = 102: (0, 19, 45, 17, 16, 68, 21, 3, 5, 48, 15, 0)
s = 103: (0, 47, 59, 21, 18, 62, 30, 3, 3, 32, 17, 0)
s = 104: (0, 57, 52, 25, 29, 34, 24, 4, 5, 32, 22, 0)
s = 105: (0, 29, 40, 21, 21, 34, 37, 2, 6, 38, 20, 0)
s = 106: (0, 34, 29, 36, 21, 46, 16, 5, 5, 20, 30, 0)
s = 107: (0, 45, 35, 22, 15, 33, 21, 3, 3, 24, 23, 0)
s = 108: (0, 37, 33, 14, 13, 54, 29, 2, 6, 23, 21, 0)
s = 109: (0, 28, 41, 19, 19, 49, 22, 3, 4, 35, 24, 0)
s = 110: (0, 40, 40, 18, 16, 51, 31, 4, 3, 26, 16, 0)
s = 111: (0, 29, 31, 21, 24, 52, 43, 3, 4, 30, 14, 0)
s = 112: (0, 21, 31, 15, 18, 37, 19, 4, 4, 32, 18, 0)
s = 113: (0, 32, 40, 28, 21, 25, 26, 4, 6, 30, 29, 0)
s = 114: (0, 45, 32, 15, 20, 38, 27, 3, 6, 27, 24, 0)
s = 115: (0, 26, 42, 16, 26, 45, 34, 5, 7, 25, 18, 0)
s = 116: (0, 45, 47, 26, 13, 41, 51, 5, 6, 38, 16, 0)
s = 117: (0, 17, 35, 22, 18, 40, 34, 4, 5, 29, 29, 0)
s = 118: (0, 32, 33, 27, 19, 66, 32, 4, 5, 21, 23, 0)
s = 119: (0, 34, 29, 25, 32, 83, 32, 4, 6, 25, 13, 0)
s = 120: (0, 24, 54, 15, 20, 30, 21, 3, 6, 34, 12, 0)
s = 121: (0, 37, 31, 21, 17, 50, 26, 5, 4, 22, 14, 0)
s = 122: (0, 38, 28, 27, 15, 40, 26, 4, 7, 34, 20, 0)
s = 123: (0, 49, 45, 20, 34, 53, 29, 3, 4, 25, 19, 0)
s = 124: (0, 20, 37, 19, 16, 38, 22, 4, 5, 25, 23, 0)
s = 125: (0, 24, 30, 34, 28, 32, 51, 4, 5, 32, 14, 0)
s = 126: (0, 24, 39, 23, 22, 33, 33, 5, 6, 21, 27, 0)
s = 127: (0, 43, 30, 17, 14, 37, 35, 3, 4, 24, 22, 0)
s = 128: (0, 27, 29, 30, 16, 77, 32, 3, 3, 20, 16, 0)
s = 129: (0, 21, 36, 23, 23, 31, 40, 4, 4, 30, 21, 0)
s = 130: (0, 22, 44, 16, 28, 31, 27, 3, 7, 22, 14, 0)
s = 131: (0, 37, 22, 25, 19, 32, 31, 4, 6, 39, 19, 0)
s = 132: (0, 30, 52, 20, 16, 40, 28, 2, 4, 35, 12, 0)
s = 133: (0, 31, 50, 20, 24, 53, 32, 3, 4, 45, 14, 0)
s = 134: (0, 19, 31, 23, 28, 32, 24, 3, 4, 21, 21, 0)
s = 135: (0, 21, 36, 29, 16, 33, 43, 2, 5, 18, 18, 0)
s = 136: (0, 35, 29, 26, 18, 38, 28, 3, 4, 48, 22, 0)
s = 137: (0, 46, 25, 28, 22, 43, 19, 5, 3, 39, 14, 0)
s = 138: (0, 25, 31, 25, 23, 38, 30, 4, 4, 29, 23, 0)
s = 139: (0, 41, 25, 17, 19, 37, 27, 5, 3, 24, 19, 0)
s = 140: (0, 44, 38, 15, 15, 51, 40, 3, 6, 23, 18, 0)
s = 141: (0, 33, 51, 28, 16, 51, 20, 4, 4, 30, 30, 0)
s = 142: (0, 30, 46, 15, 25, 41, 31, 3, 7, 30, 15, 0)
s = 143: (0, 23, 35, 34, 21, 33, 23, 3, 6, 27, 19, 0)
s = 144: (0, 32, 44, 14, 23, 41, 29, 3, 4, 39, 17, 0)
s = 145: (0, 38, 43, 14, 12, 35, 45, 4, 4, 28, 17, 0)
s = 146: (0, 47, 34, 20, 27, 46, 20, 3, 4, 32, 11, 0)
s = 147: (0, 45, 39, 18, 30, 40, 36, 3, 3, 39, 11, 0)
s = 148: (0, 43, 34, 13, 15, 48, 44, 3, 7, 37, 19, 0)
s = 149: (0, 21, 35, 13, 27, 50, 20, 2, 3, 39, 20, 0)
s = 150: (0, 29, 21, 23, 32, 45, 29, 3, 5, 24, 15, 0)
s = 151: (0, 23, 33, 24, 20, 69, 22, 3, 4, 37, 14, 0)
s = 152: (0, 45, 35, 26, 15, 49, 25, 3, 4, 43, 16, 0)
s = 153: (0, 28, 42, 18, 19, 53, 27, 2, 8, 34, 11, 0)
s = 154: (0, 38, 37, 23, 26, 47, 32, 4, 4, 33, 23, 0)
s = 155: (0, 45, 42, 28, 26, 63, 21, 2, 5, 43, 14, 0)
s = 156: (0, 27, 30, 25, 14, 32, 23, 4, 4, 36, 13, 0)
s = 157: (0, 28, 31, 23, 20, 72, 28, 4, 3, 21, 19, 0)
s = 158: (0, 47, 40, 28, 23, 38, 34, 3, 7, 23, 28, 0)
s = 159: (0, 26, 60, 26, 18, 35, 29, 4, 3, 44, 19, 0)
s = 160: (0, 25, 35, 18, 24, 65, 35, 4, 4, 28, 24, 0)
s = 161: (0, 19, 40, 23, 31, 41, 38, 3, 4, 26, 17, 0)
s = 162: (0, 31, 42, 20, 34, 55, 18, 3, 6, 24, 15, 0)
s = 163: (0, 35, 42, 31, 15, 27, 28, 3, 3, 40, 12, 0)
s = 164: (0, 34, 52, 30, 14, 35, 30, 3, 6, 31, 26, 0)
s = 165: (0, 26, 55, 39, 18, 41, 25, 3, 4, 20, 23, 0)
s = 166: (0, 39, 28, 39, 17, 45, 22, 2, 5, 27, 22, 0)
s = 167: (0, 18, 42, 25, 24, 43, 19, 3, 4, 18, 10, 0)
s = 168: (0, 52, 65, 17, 17, 50, 24, 3, 5, 33, 16, 0)
s = 169: (0, 23, 30, 17, 17, 42, 26, 3, 5, 51, 23, 0)
s = 170: (0, 45, 32, 15, 24, 52, 27, 3, 6, 27, 23, 0)
s = 171: (0, 36, 45, 34, 22, 52, 32, 3, 5, 30, 14, 0)
s = 172: (0, 29, 27, 30, 18, 34, 40, 3, 7, 20, 19, 0)
s = 173: (0, 51, 51, 24, 28, 42, 21, 4, 6, 29, 18, 0)
s = 174: (0, 37, 26, 14, 28, 47, 39, 3, 5, 18, 27, 0)
s = 175: (0, 22, 31, 17, 21, 50, 35, 3, 3, 26, 17, 0)
s = 176: (0, 33, 32, 26, 18, 43, 17, 3, 6, 34, 28, 0)
s = 177: (0, 21, 32, 14, 31, 38, 26, 4, 4, 25, 26, 0)
s = 178: (0, 50, 35, 40, 26, 44, 27, 3, 6, 41, 19, 0)
s = 179: (0, 47, 30, 17, 23, 49, 25, 4, 5, 17, 27, 0)
s = 180: (0, 34, 35, 14, 27, 53, 24, 3, 5, 25, 24, 0)
s = 181: (0, 46, 57, 20, 23, 52, 30, 4, 3, 45, 32, 0)
s = 182: (0, 25, 28, 17, 16, 55, 30, 3, 5, 29, 12, 0)
s = 183: (0, 32, 48, 30, 17, 36, 29, 5, 6, 30, 27, 0)
s = 184: (0, 30, 22, 20, 18, 25, 25, 4, 3, 23, 10, 0)
s = 185: (0, 35, 29, 22, 16, 40, 47, 4, 4, 35, 19, 0)
s = 186: (0, 21, 53, 17, 20, 31, 30, 3, 4, 47, 12, 0)
s = 187: (0, 34, 36, 23, 17, 47, 33, 2, 3, 24, 15, 0)
s = 188: (0, 29, 43, 20, 26, 44, 28, 3, 5, 30, 20, 0)
s = 189: (0, 31, 30, 13, 22, 31, 20, 4, 3, 29, 22, 0)
s = 190: (0, 23, 23, 22, 22, 45, 34, 3, 5, 50, 21, 0)
s = 191: (0, 22, 24, 17, 22, 36, 24, 3, 6, 32, 13, 0)
s = 192: (0, 38, 44, 24, 22, 29, 18, 3, 4, 29, 20, 0)
s = 193: (0, 57, 42, 15, 23, 44, 30, 3, 5, 59, 24, 0)
s = 194: (0, 42, 49, 24, 31, 27, 24, 4, 6, 18, 21, 0)
s = 195: (0, 31, 31, 17, 22, 69, 23, 3, 4, 23, 17, 0)
s = 196: (0, 26, 37, 15, 16, 44, 36, 4, 3, 25, 14, 0)
s = 197: (0, 28, 33, 22, 21, 54, 31, 3, 4, 55, 22, 0)
s = 198: (0, 19, 40, 20, 16, 46, 47, 5, 5, 29, 22, 0)
s = 199: (0, 23, 40, 34, 21, 57, 27, 4, 4, 22, 11, 0)
s = 200: (0, 44, 47, 34, 26, 33, 23, 4, 4, 16, 11, 0)
************************************************************************
ES/LS-VALUES:
jobnr.   ES(i)    LS(i)
------------------------------------------------------------------------
  0        0        0
  1        0       32
  2        0       32
  3        0       52
  4        5       59
  5        7       40
  6       16       50
  7       21       56
  8       11       66
  9       23       58
 10       16       62
 11       32       68
************************************************************************
BIG-M-VALUES:
M1 = 38, M2 = 231
************************************************************************
